
 102   30
  10   10   10   10   10   10   10   10   10   10   10   10   10   10   10   10   10   10   10   10   10   10   10   10   10   10   10   10   10   10

   0   0   0   0   0   0   0   0   0   0   0   0   0   0   0   0   0   0   0   0   0   0   0   0   0   0   0   0   0   0   0  31 2 3 4 5 6 7 8 9 10 11 12 13 14 15 16 17 18 20 21 22 23 27 28 29 30 32 33 36 40 42 46 
   6   0   0   0   0   1   0   0   0   0   3   0   0   0   0   0   0   0   0   0   0   0   0   0   0   0   0   0   0   0   0  16 101 100 99 71 64 60 52 49 48 45 43 41 39 38 31 24 
   2   0   0   0   0   0   0   0   0   0   0   0   0   0   0   0   0   1   0   0   0   0   0   0   5   0   0   0   0   0   0  15 100 99 71 68 64 60 55 54 49 48 44 43 41 34 24 
   7   0   0   0   0   0   0   0   1   0   4   0   1   0   0   0   0   0   0   0   0   2   0   0   0   0   2   0   0   0   0  12 101 100 98 97 71 61 55 50 47 34 26 19 
   9   0   0   0   0   0   0   0   8   0   0   0   0   0   0   0   0   0   0   0   0   0   0   0   0   0   0   0   0   0   3  18 101 100 99 98 96 93 70 64 61 60 59 58 55 49 47 45 39 38 
   3   0   0   2   0   0   0   0   0   0  10   0   0   0   1   2   0   0   1   0   0   0   3   0   0   0   0   0   0   0   0  16 100 98 97 95 94 90 64 61 60 59 54 50 47 38 37 34 
   7   0   0   0   0   0   0   0   0   3   0   2   0   2   9   0   1   0   0   0   1   0   0   0   0   1   0   0   0   0   0  13 100 99 97 67 64 61 60 59 54 48 38 34 26 
   5   0   0   0   0   0   0   0   7   0   0   0   0   0   0   0   7   0   0   0   0   3   0   0   0   0   0   0   0   0   9  16 101 99 98 96 93 71 64 59 55 54 51 48 47 45 38 31 
   1   0   0   3   0   0   0   3   0   0   0   0   0   0   0   0   0   0   3   0   0   0   6   0   0   0   0   0   1   0   0  16 101 99 98 97 94 93 92 70 64 61 60 57 55 51 39 25 
   9   0   1   0   0   0   0   0   0   0   0   0   0   0   0   0   0   0   0   0   0   0   0   0   0   4   0   0   0   0   5   9 98 97 90 70 59 50 47 34 19 
   3   2   0   9   4   0   0   0   6   0   0   0   0   0   0   0   0   8   0   0   6   0   5   0   0   0   0   0   5   0   0  12 97 71 64 60 57 56 49 48 47 43 35 34 
   7   0   0   0   0   9   0   0   0   0   6   0   6   0   4   0   0   0   0   0   0   0   2   0   0   0   0   0   0   0   0  21 101 100 99 98 97 96 95 93 92 90 79 69 67 65 64 62 60 59 55 48 38 
   6   0   6   0   0   0   1   0   0   0   0   0   0   0   0   0   0   0   0   1   0   0   0   0   0   0   0   0   0   0  10  20 101 100 97 96 95 94 93 92 91 89 70 68 65 60 59 58 56 51 48 47 
  10   0   2   0   0   0   0   0   0   6   0   0   0   0   0   0   0   0   0   0   0   0   0   0   0   0   0   0   4   0   0  16 100 99 95 94 93 90 84 79 65 64 61 60 58 55 47 38 
  10   8   0   0   0   0   0   0   3   0   0   0   0   1   9   0   0   0   0   0   0   0   0   0   2   0   7   0   0   0   0  20 101 99 98 97 96 95 93 90 88 84 83 79 69 67 66 65 62 60 59 38 
   4   0   0   6   0   0   0   0   0   0   0   0   0   7   0   0   0   6   0   0   0   8   0   0   0  10   0   1   0   0   0  14 100 98 96 92 91 90 70 65 64 63 61 58 39 37 
   6   0   0   0   0   0   0   0   0   0   0   0   0   0   0   0   0   0   0   0   0   0   9   0   0   0   0   0   0   0   0  10 100 90 89 68 64 60 56 47 34 31 
   4   0   0   0   0   0   0   0   0   0   0   0   0   0   0   0   0   0   0   0   0   0   0   0   0   0   0   0   0   0   0  12 99 97 95 94 89 88 70 68 64 56 54 34 
   6   4   0   0   0   0   0   0   0   0   0   6   0   0   0   4   7   0   0   0   3   0   0   0   0   6   0   0   0   1   5  15 96 94 93 88 84 83 67 66 65 64 62 60 56 54 38 
   3   0   0   0   3   0   0   0   0   0   0   0   0   0   0   0   0   0   9   0   0   0   0   0   0   0   0   0   0   0   0  12 100 99 94 93 92 90 66 62 59 56 48 38 
  10   0   0   0   0   0   0   0   0   0   0   0   0   0   0   0   0   0   0   0   0   0   0   0   0   0   0   0  10   0   0  16 97 94 91 90 89 88 87 86 85 84 82 79 70 57 49 47 
   5   0   0   0   0   0   0   0   5   8   3   7   0   0   0   0   0   0   0   0   0   0   7   0   0   0   0   0   0   0   0  14 101 97 93 92 89 82 79 71 68 64 61 58 48 47 
   4   0   0   6   0   0   0   0   0   0   0   0   0   0   0   6   0   4   0   0   0   5   0   0   0   0   0   5   0   0   0   9 99 93 92 90 79 65 48 47 38 
   2   0   0   0   0   0   0   3   0   0   9   0   0   0   0   0   0   0   6   0   0   0   0   0   0   0   0   0   0   8   0  13 97 96 95 94 93 86 83 70 65 59 56 51 47 
   1  10   0   6   0   0   0   0   0   8   0   0   0   0   0   0   0  10   0   0   0   0   0   2   0   0   0   0   0   0   0  12 100 95 90 89 87 86 84 76 65 58 56 47 
   3   0   9   0   0   6   0   0   0   0   0   0   9   0   0  10   0   0   0   0   0   0   0   0   0   0   0   2   0   0   9  14 96 95 94 92 87 85 83 76 74 70 62 57 56 51 
   1   0   0   0   0   0   0   0   0   0   0   0   5   0   0   0   0   0   0   0   0   0   6   0   0   8   0   0   0   0   0  14 97 96 94 93 86 84 82 81 77 74 69 67 62 43 
   4   0   0   6   0   0   0   8   0   0   0   0   0   0   0   0   0   8   0   0   0   0   0   0   0   0   0   0   0   0   0  13 100 96 87 86 85 83 82 79 67 66 62 59 53 
   9   0   0   0   0   0   0   0   0   0   0   0   6   0   0   0   0   0   0   0   0   5   0   0   0   0   0   0   0   0   1  13 100 95 92 87 86 85 81 76 65 64 63 56 51 
  10   0   0   9   0   0   0   0   0   9   0   0   0   0   0   0   0   0   0   0   0   9   0   0   0   0   0   0   0   0   9  17 97 92 90 89 84 82 81 80 79 78 77 75 70 69 65 59 58 
   6   6   0   0   0   0  10   0   0   0   0   7   0   0   6   0   0   0   0   0   9  10   0   0   0  10   0   0   0   0   0  15 94 91 88 87 86 84 81 80 79 78 75 67 65 63 58 
   6   0   0   0   0   0   0   0   0   4   0   0   0   0   0   0   0   0   0   0   0   0   6   5   6   0   5   0   0   0   0  14 99 90 89 88 87 84 83 82 73 70 69 66 59 57 
   3   0   0   0   0   0   0   0   0   0   7   0   0   0   0   0   0   0   0   0   7  10   0   0   0   0   0   0   0   0   0  15 100 91 90 87 85 83 82 79 78 77 76 67 66 65 62 
   9   0   0   0   0   8  10   0   0   0   0   0   0   0   0   6   0   0   0   0   0   4   5  10   0   0   0   0   0   0   0  13 96 93 91 82 79 78 76 72 66 65 63 62 58 
   4   0   0   5   0   3   0   6   0   6   0   0   0   0   0   0   0   0   7   0   0   0   0   8   0   9   0   0   0   0   0  15 95 94 91 89 88 85 84 79 78 77 75 73 69 65 59 
   4   4   0  10   0   0   0   0   4   0   0   0   0   0   0   0   0   0   0   0   0   0   7   0   0   0   6   4   0   0   0  11 92 87 86 79 74 72 68 66 63 62 58 
   8  10   7   0   0   0   0   0   0   0   0   8   0   0   0   0   0   0   0   0   0   0   0   0   0   0   0   0   0   0   0  12 93 88 87 82 81 80 79 76 72 71 68 62 
   1   0   0   0   0   0   9   0   0   0   0   0   0   0   0   0   0   5   8   0   0   0   7   0   0   0   0   0   0   0   0  10 91 89 87 86 82 76 75 74 63 57 
   3   0   0   0   0   0   0   0   0   0   0   0   0   0   0   0   0   0   0   6   0   0   0   0   0   0   0  10   0   0   0  14 95 88 86 84 83 82 81 80 79 78 77 74 73 69 
   5   0   0   0   0   0   0   0   0   0   0   0   0   0   0   0   0   0   4   0   0   0   0   4   0   0   0   0   0   0   0  14 98 96 93 91 90 89 87 86 79 78 76 74 73 67 
   9   0   0   0   0   8   0   0   0   0   0   6   0   0   0   0   0   0   0   0   0   0   0   0   0   0   0   0   0   0   5  11 88 86 83 80 77 75 74 73 69 67 66 
   5   0   0   0   7   0   0   0   7   0   0   0   0   0   0   0   0   0   0   0   0   0   0   0   0   6   0  10   0   0   0  12 90 87 85 82 81 80 79 76 75 73 72 65 
   1   0   0   0   0   0   7   0   0   0   0   0   0   7   0   0   0   5   0   0   0   0   0   0   0   0  10   0   0   0   5  12 98 95 92 91 83 80 79 78 76 75 73 72 
   1   4   0   0   0   6   0   0   0   0   0   0   0   0   0   0   0   6   0   0   0   0   0   0   0   0   0   0   0   0   0   9 90 89 82 79 77 76 75 72 58 
   6   0   0   0   4   6   0   0   0   0   0   0   0   0   0   9   0   0   4   0   0   0   0  10   0   0   0   0   0   0   0   6 90 89 85 75 65 56 
   9   0   0   0  10   0   0   0   0   0   0   7   0   4   0   0   0   0   0   0   0   0   0   0  10   0   0   0   0   0   0   8 93 92 91 89 84 75 65 63 
   6   0   0   0   0   0   0   0   0   0   0   0   0  10   0   0   9   0   0   0   0   0   0   0   0   0   0   0   0   0   0   6 78 74 67 66 63 62 
   7   0   0   0   0   0   4   0   0   0   0   4   0   0   0   6   0   6   0   0   0   0   0   0   0   0   9   0   0   0   0  10 87 86 85 84 83 81 78 76 73 72 
   9   0   0   0   6   0   4   0   0   0   0   0   0   0   0   0   0   0   0   0   0   0   0   4   0   0   0   0   0   0   0  10 92 83 81 80 78 77 76 74 73 72 
   4   0   0   0   0   0   0   0   0   0   0   0   0   0   0   0   0   0   0   0   0   0   0   0   0   0   0   0   0   0   0   8 99 86 85 77 76 74 72 62 
  10   0   0   0   0   0   9   5   0   0   0   0   7   0   0   0   0   0   0   0   5   0   0   0   0   0   2   0   0   0   0   9 90 88 84 82 80 79 77 75 73 
   8   0   0   0   0   0   0   0   0   0   5   0   0   0   0   0   0   5   0   0   0   0   0   0   5   0   9   0   0   0   0   8 97 95 94 89 87 84 81 65 
   9  10   6   0   0   0   0   0   0   0   0   0   0   0   0   0   0   5   0   6   0   0   0   0   0   0   0   0   0   0   0   8 94 88 80 77 76 75 74 70 
   3   9   0   0   0   0   0   0   0   0   7   0   0   0   0   0   8   0   8   0   0   0   0   0   0   0   0   0   0   0   0   6 92 86 79 73 72 69 
   5   0   0   0   0   0   0   7   0   0   0   0   0   0   0  10   0   0   0   0   0   0   0   0   0   0   0   0   0   0   7   6 88 85 78 77 74 72 
   2   0  10   0   0   0   0   0   0   0   0   0   0   0   0   6   0   0   7   0   0   0   0   0   0   0   0   0   0   0   0   5 82 80 79 73 72 
   4   0   0   0   0   0   0   8   0   0   0   0   0   0   0   0   6   0   0   0   7   0   0   0   0   0   0   0   0   0   0   3 80 72 68 
  10   8   0   0   0   0   0   0   0   0   0   0   0   0   0   0   0   0   0   0   0   6   0   0   0   0   0   0   0   0   0   3 85 83 73 
   6   0   0   0   0   0   0   0   0   0   0   0   0   8   0   3   0   0   0   5   0   0   0   0   0   3   0   0   8   0   0   3 76 74 72 
   2   0   0   5   0   0   0   0   0   0   0   0   0   0   0   6   0   0   5   5   0   0   0   0   5   0   0   0   0   0   0   3 75 73 72 
  10   0   0   0   0   0   0   0   0   0   9   5   0   0   0   0   0   0   0   6   0   8   0   0   0   0   0   0   9   0   0   3 80 78 75 
   2   0   4   0   0   0   0   0   0   0   0   0   0   0   0   0   0   0   0   0   0   0   0   0   6   0   6   0   0   0   5   2 75 73 
   5   0   0   0   0   0   0   0   0   0   0   0   0   0   6   6   0   8   0   0   0   0   0   7   7   0   0   0   0   0   0   2 77 73 
  10   0   0   0   0   0   0   0   6   0   0   0   0   0   0   0   7   0   0   0   0   0   0   0   0   0   0   0   0   6   0   2 74 72 
   9   0   3   0   0   0   0   7   0   0   0   0   0   0   0   0   4   4   5   0   0   6   0   0   0   0   0   0   0   7   0   1 74 
   2   0   0   0   0   0   0   0   0   0   0   0   0   0   0  10   0   7   0   0   0   0   0   0   0   0   0   0   0   0   0   1 81 
   1   0   0   0   0   0   0   0   6   0   0   0   0   0   0   0   0   0   0   0   0   0   0   0   0   0   9   0   0   0   0   1 72 
   4   0   0   0   0   0   0   0   0   7   0   0   7   0   0   0   4   0   0   6   0   0   0   0   0   0   0   0   0   0   0   1 78 
   5   0   0   0   0   0   0   0   0   0   0   0   0   0   0   0   0   0   0   0   0   0   3   0   0   0   5   0   0   0   0   1 76 
   2   0   0   0   0   0   0  10   9   5   0   0   0   0   0   0   0   0   0   0   0   0   0   0   0   0   0   0   0   0   0   1 72 
   7   0   0   0   0   0   0   0   0   0   0   0   0   0   0   0   0   8   0   0   0   0   0   0   0   0   1   0   0   0   0   1 84 
   9   0   0   0   0   0   0   0   0   0   0   0   0   0   7   0   6   0   0   0   0   0   0   0   0   0   0   9   0   0   0   1 102
   3   0   0   0   0   0   0   0   0   0   0   0   0  10   0   0   0   0   0   0   0   0   0   0   0   0   0   0   0   0   0   1 102
   3   0   0   0   6   0   4   0   8   0   0   0   0   0   0   0   0   0   0   0   0   0   0   0   0   0   0   0   0   0   0   1 102
   3   0  10   0   0   0   0   0   6   0   0   0   6   0   6   0   5   0   0   9   0   0  10   0   0   0   0   0   7   0   8   1 102
  10   4   0   0   0   0   0   0   0   0   0   0   0   0   0   4   0   0   0   0   0   0   0   0   0   3   0   0   0   0   0   1 102
   4   0   0   0   0   6   0   0   0   0   0   0   0   0   0   0   0   0   9   0   0   0   0   6   0   0   0   0   0   8   0   1 102
   4   5   0   0  10   0   4   0   0   0   0   0   0   0   0   4   7   0   0   0   0   0   0   0   0   0   6   0   0   0   0   1 102
  10   0   0   0   0   0   0   0   0   3   0   0   0   0   0   0   0   0   0   7   0   0   0   0   0   0   0   0   0   8   0   1 102
   8   6   0   0   0   0   0   0   0   0   0   0   0   0   6   0   0   0   0   0   0   0   9   7   0   0   0   0   0   0   0   1 102
   8   0   7   5   0   0   0   0   0   0   0   0   0   0   0   0   0   0   0   0   0   0   0   0   0   0   7   0   0   0   0   1 102
   4   0   0   0   0   0   0   0   0   0   0   0   0   0   0   0   0   0   0   0   0   0   5   0   0   0   0   0   0   6   0   1 102
   3   0   0   0   0   0   0   0   0  10   0   0   0   0   0   6   0   0   5   0   8   0   0   0   8   7   0   0   7   0   0   1 102
   8   0   0   0   0   9   5   0   0   0   0   0   0   0   0   5   0   0   0   0   8   0   0   0   0   0   0   0   0   0   0   1 102
   9   8   4   0   0   3   0   0   0   0   0   0   0   0   0   0   0   0   0   0   0   0   0   6   0   0   0   0   0   0   0   1 102
   4   0   0   0   0   0   0   0   0   0   0   0   0   8   0   0   0   0   0   4   0   0   0   0   0   0   0   0   0   3   0   1 102
   2   0   0   0   0   0   0   0   0   0   8   7   0   0   0   0   0   0   0   0   0   0   0   0   0   0   0   0   0   0   0   1 102
   7   0   0   0   0   0   0   0   0   5   0   0   0   0   0   0   0   0   7   0   0   0   0   0   0   0   0   0   4   0   0   1 102
   9   0   0   7   0   0   0   0   0   0   0   0   0   0   0   0   0   0   0   0   0   0   0   0   0   5   0   0   5   0   0   1 102
   7   2   7   0   5   0   0   0   0   0   0   3   0   0   0   0   0   0   0   0   0   0   0   0   0   0   0   0   0   0   0   1 102
   5   0   0   0   0   0   0   0   0   6   0   0   0   0   0   0   0   0   0   0   0   0   0   0   0   0   0   0   0   7   0   1 102
   2   0   0   0   0   0   0   0   0   4   6  10   7   0   0   8   7   0   0   0   0   0   0   0   0   0   0   0   0   0   0   1 102
   9   5   0   0   0   0   0   0   0   0   0   0   0   0   0   6   0   0   0   0   0   0   0   0   0   0   0   0   0   0   0   1 102
   4   0   0   0   0   0   0   0   0   0   0   0   0   3   0   3   0   0   7   0   0   0   0   0   0   0   0   6   0   0   3   1 102
   7   0   0   0   0   0   0   0   9   0   0   0   0   0   0   0   0   0   0   8   0   0   0   2   0   0   0   0   0   0   0   1 102
  10   0   0   9   0   0   0   0   0   0   0   0   0   3   0   0   0   0   6   0   0   0   0   0   0   0   0   0   0   0   0   1 102
   7   0   5   0   0   8   0   0   0   0   1   0   0   0   0   0   0   0   7   9   0   0   0   7   0   0   0   0   0   0   0   1 102
   1   3   0   0   5   7   0   3   0   0   0   0   0   0   0   0   0   0   0   0   0   0   0   0   0   0   0   0   0   0   0   1 102
  10   0   9   2   6   0   5   0   5   0   0   0   0   0   0   0   0   0   0   6   0   4   0   0   0   0   0   0   0   0   0   1 102
   4   6   0   0   0   4   0   0   0   0   0   0   0   0   0   0   0   0   0   0   0   4   6   0   0   0   0   7   0   0   0   1 102
   2   0   0   0   0   0   0   0   0   0   0   0   0   9   0   0   0   0   0   0   0   0   0   0   0   0   6   0   0   0   0   1 102
   0   0   0   0   0   0   0   0   0   0   0   0   0   0   0   0   0   0   0   0   0   0   0   0   0   0   0   0   0   0   0   0 
